
Gurobi 10.0.0 (linux64) logging started Wed Nov 16 21:59:04 2022

Set parameter LogFile to value "../results/k04_n100_d005/k04_n125_d004_miles250_RP-MILO_log.txt"
Set parameter LazyConstraints to value 1
Gurobi Optimizer version 10.0.0 build v10.0.0rc2 (linux64)

CPU model: Intel(R) Xeon(R) CPU E5-2630 v4 @ 2.20GHz, instruction set [SSE2|AVX|AVX2]
Thread count: 20 physical cores, 40 logical processors, using up to 10 threads

Optimize a model with 6387 rows, 490 columns and 19161 nonzeros
Model fingerprint: 0x2d7ef96d
Coefficient statistics:
  Matrix range     [1e+00, 1e+00]
  Objective range  [1e+00, 1e+00]
  Bounds range     [1e+00, 1e+00]
  RHS range        [1e+00, 1e+00]
Presolve time: 0.01s
Presolved: 3402 rows, 490 columns, 10206 nonzeros

Iteration    Objective       Primal Inf.    Dual Inf.      Time
       0    3.8700000e+02   0.000000e+00   0.000000e+00      0s
       0    3.8700000e+02   0.000000e+00   0.000000e+00      0s

Solved in 0 iterations and 0.01 seconds (0.01 work units)
Optimal objective  3.870000000e+02
Gurobi Optimizer version 10.0.0 build v10.0.0rc2 (linux64)

CPU model: Intel(R) Xeon(R) CPU E5-2630 v4 @ 2.20GHz, instruction set [SSE2|AVX|AVX2]
Thread count: 20 physical cores, 40 logical processors, using up to 10 threads

Optimize a model with 9754 rows, 490 columns and 52831 nonzeros
Coefficient statistics:
  Matrix range     [1e+00, 1e+00]
  Objective range  [1e+00, 1e+00]
  Bounds range     [1e+00, 1e+00]
  RHS range        [1e+00, 1e+00]
Iteration    Objective       Primal Inf.    Dual Inf.      Time
       0    3.8700000e+02   3.367000e+03   0.000000e+00      0s
     683    3.6884449e+02   0.000000e+00   0.000000e+00      0s

Solved in 683 iterations and 0.11 seconds (0.18 work units)
Optimal objective  3.688444901e+02
